c 1 2 30 3 31 4 35 19 9 20 10 21 11 22 12 5 6 7 8 13 14 15 16 17 18 23 24 25 26 27 28 29 32 33 34 36 
p wcnf 51 36 6
6 -1 5 
6 -2 6 
6 -3 7 
6 -4 8 
6 -9 1 
6 -10 1 
6 -11 1 
6 -12 1 
6 -9 13 
6 -9 14 
6 -9 15 
6 -10 14 
6 -10 15 
6 -10 16 
6 -11 15 
6 -11 16 
6 -11 17 
6 -12 16 
6 -12 17 
6 -12 18 
6 -19 1 
6 -20 1 
6 -21 1 
6 -22 1 
6 -19 23 
6 -19 24 
6 -19 25 
6 -19 26 
6 -20 24 
6 -20 25 
6 -20 26 
6 -20 27 
6 -21 25 
6 -21 26 
6 -21 27 
6 -21 28 
6 -22 26 
6 -22 27 
6 -22 28 
6 -22 29 
6 -30 9 
6 -31 9 
6 -30 32 
6 -30 33 
6 -31 33 
6 -31 34 
6 -35 19 30 
6 -35 36 
6 9 10 11 12 19 20 21 22 
6 9 10 11 12 19 20 21 22 30 31 
3 35 
